instances_and_solutions/roster/eprime/param/36_2_4.param
language ESSENCE' 1.0
letting shiftRequirements = [[18, 2, 4, 12], [12, 1, 9, 14], [10, 1, 10, 15], [9, 2, 9, 16], [12, 4, 9, 11], [20, 3, 3, 10], [20, 3, 3, 10]]
letting numberOfWeeks = 36
letting s_min = 2
letting s_max = 4
